p cnf 435 461
DNF 129 -263 169 304 53 314 330 207 343 345 221 93 94 98 102 360 105 378 244 119 121 250 124 0 129 169 304 53 -182 314 330 207 343 345 221 93 94 98 102 360 105 378 244 119 121 250 124 0 129 169 304 -176 53 314 330 207 343 345 221 93 94 98 102 360 105 378 244 119 121 250 124 0 129 169 304 53 314 -60 330 207 343 345 221 93 94 98 102 360 105 378 244 119 121 250 124 0 -129 263 -169 -304 176 -53 182 -314 60 -330 -207 -343 -345 -221 -93 -94 -98 -102 -360 -105 -378 -244 -119 -121 -250 -124 0 0
DNF 385 259 404 -286 291 166 42 303 313 195 323 80 81 84 344 218 349 101 357 112 241 0 385 259 404 -278 291 166 42 303 313 195 323 80 81 84 344 218 349 101 357 112 241 0 385 259 -267 404 291 166 42 303 313 195 323 80 81 84 344 218 349 101 357 112 241 0 385 259 404 291 166 42 -43 303 313 195 323 80 81 84 344 218 349 101 357 112 241 0 -385 -259 267 -404 278 286 -291 -166 -42 43 -303 -313 -195 -323 -80 -81 -84 -344 -218 -349 -101 -357 -112 -241 0 0
DNF 58 231 393 298 364 308 375 185 186 -59 0 58 231 393 298 364 -49 308 375 185 186 0 -58 -231 -393 -298 -364 49 -308 54 -375 -185 -186 59 0 58 231 393 298 364 308 -54 375 185 186 0 0
DNF 131 229 136 137 140 -302 148 0 131 229 136 137 -297 140 148 0 -131 -229 -136 -137 297 -140 302 -148 0 0
DNF 66 132 133 230 135 -216 0 -66 -132 -133 -230 -135 216 0 0
DNF -321 28 -86 -91 -92 -158 0 321 -28 86 91 92 158 0 0
DNF -292 -295 -296 -373 -311 27 0 292 295 296 373 311 -27 0 0
DNF -301 -370 -281 26 -284 -285 0 301 370 281 -26 284 285 0 0
DNF -392 -397 -398 -401 19 -409 0 392 397 398 401 -19 409 0 0
DNF -353 -354 -355 9 -367 -350 0 353 354 355 -9 367 350 0 0
DNF -192 -193 34 -200 -203 -184 0 192 193 -34 200 203 184 0 0
DNF -396 -398 178 276 277 342 -405 0 -178 -276 -277 -342 405 0 398 -178 -276 -277 -342 0 396 -178 -276 -277 -342 0 0
DNF 128 206 -210 -212 63 -222 127 0 -128 -206 -63 222 -127 0 -128 -206 212 -63 -127 0 -128 -206 210 -63 -127 0 0
DNF -305 117 118 120 -283 -285 62 0 305 -117 -118 -120 -62 0 -117 -118 -120 285 -62 0 -117 -118 -120 283 -62 0 0
DNF -169 173 23 0 -167 173 23 -318 -159 0 -319 -168 173 -175 23 -159 0 -168 173 -175 23 -318 -159 0 -319 -167 173 -175 23 -159 0 0
DNF 138 75 139 147 -307 -310 -311 0 138 75 139 147 -307 -308 -311 0 -138 -75 -139 -147 311 0 -138 -75 -139 -147 308 310 0 -138 -75 -139 -147 307 0 0
DNF -160 163 99 -164 -141 -143 -154 0 -160 -161 163 99 -141 -143 -154 0 -160 163 99 -141 -143 -153 -154 0 161 -163 -99 153 159 0 -163 -99 143 153 159 0 -163 -99 141 143 0 161 -163 -99 141 153 0 0
DNF -98 265 266 78 275 0 98 -265 -266 -78 -275 0 0
DNF 386 387 390 235 -383 0 -386 -387 -390 -235 383 0 0
DNF 224 97 225 -231 252 0 -224 -97 -225 231 -252 0 0
DNF -353 -361 122 123 61 -351 0 361 -122 -123 -61 0 353 -122 -123 -61 0 -122 -123 -61 351 0 0
DNF -386 328 329 177 -337 -376 0 386 -328 -329 -177 0 -328 -329 -177 376 0 -328 -329 -177 337 0 0
DNF 169 -170 -173 -175 53 0 -161 -167 169 -170 -173 53 -318 0 -161 -167 169 -170 -173 53 -317 0 166 -169 -174 -53 317 0 161 -169 -174 -53 159 0 -161 -166 169 -170 -173 53 -317 0 -319 -168 169 -170 -175 53 -159 0 -161 -166 169 -170 -173 53 -318 0 -161 -167 169 -170 53 -318 -159 0 -167 169 -170 -175 53 -318 -159 0 -319 -167 169 -170 -175 53 -159 0 -319 -168 169 173 -175 53 -159 0 -161 -167 169 173 53 -318 -159 0 -167 169 173 -175 53 -318 -159 0 -319 -167 169 173 -175 53 -159 0 -168 169 173 -175 53 -318 -159 0 0
DNF -261 233 -238 -245 248 249 0 261 -233 -248 -249 0 -233 245 -248 -249 0 -233 238 -248 -249 0 0
DNF -193 -196 104 187 188 -191 0 196 -104 -187 -188 0 193 -104 -187 -188 0 -104 -187 -188 191 0 0
DNF 64 65 -293 -295 52 -315 0 -64 -65 -52 315 0 -64 -65 295 -52 0 -64 -65 293 -52 0 0
DNF -172 179 180 85 -89 -91 0 172 -179 -180 -85 0 -179 -180 -85 91 0 -179 -180 -85 89 0 0
DNF 161 -171 173 -175 0 166 -170 -175 317 0 166 -171 173 -175 317 0 161 -170 -175 0 0
DNF 130 -228 145 146 0 -225 130 -227 145 146 0 -130 227 228 -145 -146 217 0 225 -130 228 -145 -146 217 0 130 145 146 -217 0 0
DNF 162 99 -100 163 -201 -190 0 162 99 -100 163 -102 -201 0 -162 -99 -163 102 190 0 -162 -99 100 -163 0 162 99 -100 163 -101 -102 0 -162 -99 -163 101 201 0 162 99 -100 163 -101 -190 0 0
DNF 70 -395 76 77 -399 -339 0 70 76 77 -399 -339 -345 0 -70 395 -76 -77 345 0 -70 -76 -77 339 0 -70 -76 -77 399 344 0 70 76 77 -339 -344 -345 0 70 -395 76 77 -339 -344 0 0
DNF 134 -240 -243 -246 151 152 0 134 -240 -243 -244 151 152 0 -134 244 246 -151 -152 0 -134 240 -151 -152 0 -134 241 243 -151 -152 0 134 -240 -241 -244 151 152 0 134 -240 -241 -246 151 152 0 0
DNF 4 -166 317 -318 0 4 -166 -175 317 0 4 -166 -169 317 0 -4 -167 169 173 175 -317 0 161 -4 -167 169 173 -317 0 161 -4 -167 -317 159 0 -161 4 -169 -170 -174 317 -159 0 -161 4 -170 -174 -175 317 -159 0 -4 -167 169 175 -317 159 0 -161 4 -170 -174 317 -318 -159 0 0
DNF 384 37 39 -79 0 387 37 39 -79 0 385 37 39 388 -79 0 -384 -385 -387 -68 -37 -39 79 0 -384 -387 -68 -37 -39 -388 79 0 384 67 39 -79 0 384 37 69 -79 0 384 67 69 -79 0 387 67 39 -79 0 387 37 69 -79 0 387 67 69 -79 0 385 37 69 388 -79 0 385 67 39 388 -79 0 385 67 69 388 -79 0 0
DNF 166 42 -175 -317 0 166 -169 42 -317 0 166 -167 42 -317 0 -166 169 -42 173 175 -318 0 161 -166 169 -42 173 -318 0 161 -166 -42 -318 159 0 -161 166 -167 42 -170 -174 -159 0 -161 166 -169 42 -170 -174 -159 0 -161 166 42 -170 -174 -175 -159 0 -166 169 -42 175 -318 159 0 0
DNF 67 -69 39 73 0 67 -69 39 74 0 67 -69 39 76 0 67 -69 39 138 0 -68 -69 138 79 0 -68 -69 76 79 0 -68 -69 74 79 0 -68 -69 73 79 0 -67 69 -39 -73 -74 -138 -76 0 -68 69 -39 -73 -74 -138 -76 0 67 -69 73 79 0 67 -69 74 79 0 67 -69 76 79 0 67 -69 138 79 0 -68 -69 39 73 0 -68 -69 39 74 0 -68 -69 39 76 0 -68 -69 39 138 0 0
DNF -196 -197 -422 -423 -189 0 196 197 422 189 0 196 197 423 189 0 0
DNF -67 37 69 71 0 -67 37 69 74 0 -67 37 69 76 0 -67 37 69 138 0 -67 -68 138 79 0 -67 -68 76 79 0 -67 -68 74 79 0 -67 -68 71 79 0 67 -68 -37 -71 -74 -138 -76 0 67 -37 -69 -71 -74 -138 -76 0 -67 69 71 79 0 -67 69 74 79 0 -67 69 76 79 0 -67 69 138 79 0 -67 -68 37 71 0 -67 -68 37 74 0 -67 -68 37 76 0 -67 -68 37 138 0 0
DNF -416 -417 -234 -337 -338 0 416 234 337 338 0 417 234 337 338 0 0
DNF -352 -424 -425 -109 -351 0 352 424 109 351 0 352 425 109 351 0 0
DNF 269 237 270 -239 -242 0 -269 -237 -270 242 0 -269 -237 -270 239 0 0
DNF -420 -261 -262 -421 -236 0 420 261 262 236 0 261 262 421 236 0 0
DNF 160 -166 169 174 0 160 169 174 -317 0 0
DNF 322 325 -390 326 -389 0 -322 -325 390 -326 0 -322 -325 -326 389 0 0
DNF 194 -202 -203 271 272 0 -194 203 -271 -272 0 -194 202 -271 -272 0 0
DNF -280 -282 -283 -412 -413 0 280 282 283 412 0 280 282 283 413 0 0
DNF -428 -429 -82 -89 -90 0 428 82 89 90 0 429 82 89 90 0 0
DNF 391 -400 -401 402 403 0 -391 401 -402 -403 0 -391 400 -402 -403 0 0
DNF -394 -405 -406 -410 -411 0 394 405 406 410 0 394 405 406 411 0 0
DNF 289 290 -372 -373 287 0 -289 -290 373 -287 0 -289 -290 372 -287 0 0
DNF -288 -418 -419 -293 -294 0 288 418 293 294 0 288 419 293 294 0 0
DNF -355 -358 44 110 111 0 358 -44 -110 -111 0 355 -44 -110 -111 0 0
DNF -320 -321 333 334 83 0 321 -333 -334 -83 0 320 -333 -334 -83 0 0
DNF 41 45 46 -211 -219 0 -41 -45 -46 219 0 -41 -45 -46 211 0 0
DNF -369 -370 279 347 348 0 370 -279 -347 -348 0 369 -279 -347 -348 0 0
DNF -40 -430 -431 -209 -210 0 40 430 209 210 0 40 431 209 210 0 0
DNF -67 37 -39 -79 433 -434 0 -37 -38 -39 79 -433 0 67 -37 -38 -39 -433 0 -67 37 -38 39 -79 -434 0 67 -37 39 -433 434 0 -37 -38 79 -433 434 0 -37 39 79 -433 434 0 0
DNF -161 -185 153 -154 -158 -159 0 -161 153 -154 -157 -158 -159 0 -160 163 -153 158 0 -160 163 185 -153 157 0 -160 185 141 143 -153 157 0 -163 -143 153 -154 -157 -158 -159 0 -161 -185 -165 -141 153 -154 -158 0 -161 -185 -164 -141 153 -154 -158 0 -161 -185 -165 -141 153 -158 159 0 -161 -185 -164 -141 153 -158 159 0 -185 -164 -141 -143 153 -158 159 0 -163 -185 -143 153 -154 -158 -159 0 -185 -164 -141 -143 153 -154 -158 0 -185 -164 -143 153 -154 -158 -159 0 -161 -165 -141 153 -157 -158 159 0 -160 141 143 -153 158 0 -164 -143 153 -154 -157 -158 -159 0 -164 -141 -143 153 -157 -158 159 0 -161 -164 -141 153 -157 -158 159 0 0
DNF 69 37 -39 433 -434 0 37 -39 79 433 -434 0 -37 -39 -38 79 -434 0 69 -37 -39 -38 -434 0 -69 37 39 -38 -79 -433 0 -69 -37 39 -79 -433 434 0 0
DNF 144 -152 149 150 0 -144 152 -149 -150 0 0
DNF 264 -248 181 263 0 -264 248 -181 -263 0 0
DNF -32 -228 -214 -215 0 32 228 214 215 0 0
DNF -226 -227 -213 14 0 226 227 213 -14 0 0
DNF 212 211 204 -214 0 -212 -211 -204 214 0 0
DNF -258 -253 -6 -254 0 258 253 6 254 0 0
DNF 232 -253 238 239 0 -232 253 -238 -239 0 0
DNF 432 435 0 0
DNF -256 -257 -251 13 0 256 257 251 -13 0 0
DNF -72 -142 0 68 71 72 -73 -138 -74 -76 0 68 -71 72 73 -138 -74 -76 0 0
DNF 67 229 69 230 -74 0 67 229 230 -74 73 0 229 230 -74 76 0 229 230 -74 138 0 -67 -229 -69 -72 74 0 -67 -69 -230 -72 74 0 229 69 230 71 -74 0 229 230 71 -74 73 0 0
DNF 161 169 141 173 -154 -159 0 161 166 141 -154 317 -159 0 -160 163 169 173 -154 -159 0 -160 -166 -169 -153 159 0 -160 -164 -166 -169 -141 159 0 161 169 141 173 -153 -159 0 161 163 169 173 -153 -159 0 161 163 169 173 -154 -159 0 -160 169 141 173 -154 -159 0 161 166 141 -153 317 -159 0 161 163 166 -153 317 -159 0 161 163 166 -154 317 -159 0 -160 -164 -169 -141 -317 159 0 -160 166 141 -154 317 -159 0 -160 163 166 -154 317 -159 0 -160 -169 -153 -317 159 0 -161 -164 -166 -169 -141 159 0 -161 -166 -169 -153 159 0 -161 -165 -166 -169 -141 159 0 -161 -164 -169 -141 -317 159 0 -161 -165 -169 -141 -317 159 0 -161 -169 -153 -317 159 0 -160 -166 -173 -153 159 0 -160 -164 -166 -141 -173 159 0 -161 -165 -166 -141 -173 159 0 -161 -166 -173 -153 159 0 -161 -164 -166 -141 -173 159 0 -161 -165 -141 -173 -317 159 0 -161 -164 -141 -173 -317 159 0 -161 -173 -153 -317 159 0 -160 -164 -141 -173 -317 159 0 -160 -173 -153 -317 159 0 0
DNF -161 169 143 175 -155 159 0 -161 166 143 -155 317 159 0 -160 -161 163 169 175 -154 0 161 -166 -169 -153 -159 0 161 -163 -166 -169 -143 -159 0 -161 169 143 175 -154 159 0 -161 163 169 175 -154 159 0 -161 163 169 175 -155 159 0 -160 -161 169 143 175 -154 0 -161 166 143 -154 317 159 0 -161 163 166 -154 317 159 0 -161 163 166 -155 317 159 0 -160 -161 163 166 -154 317 0 -160 -161 166 143 -154 317 0 161 -163 -169 -143 -317 -159 0 -160 161 -166 -169 -153 0 -160 161 -164 -166 -169 -143 0 161 -169 -153 -317 -159 0 161 -164 -169 -143 -317 -159 0 161 -164 -166 -169 -143 -159 0 -160 161 -169 -153 -317 0 -160 161 -164 -169 -143 -317 0 -160 161 -164 -166 -143 -175 0 161 -166 -175 -153 -159 0 -160 161 -166 -175 -153 0 161 -163 -166 -143 -175 -159 0 161 -164 -166 -143 -175 -159 0 161 -175 -153 -317 -159 0 -160 161 -175 -153 -317 0 161 -163 -143 -175 -317 -159 0 -160 161 -164 -143 -175 -317 0 161 -164 -143 -175 -317 -159 0 0
DNF 130 146 -149 0 130 -141 -143 146 0 130 -71 -73 146 0 130 -71 -143 146 0 -130 71 73 -142 -146 0 130 -73 -141 146 0 0
DNF 144 -146 149 0 -71 -73 144 149 0 -71 -143 144 149 0 71 73 -142 -144 -149 0 -73 -141 144 149 0 -141 -143 144 149 0 0
DNF -87 88 59 0 -87 90 59 0 92 -87 59 0 -87 59 156 0 96 -87 156 0 -87 156 95 0 -92 87 -88 -90 -59 -156 0 -87 88 95 0 96 92 -87 0 92 -87 95 0 -87 90 95 0 96 -87 88 0 96 -87 90 0 0
DNF -65 -263 -117 -122 60 -127 0 -65 -117 -182 -122 60 -127 0 -65 -176 -117 -122 60 -127 0 -65 -117 -53 -122 60 -127 0 65 53 -60 0 117 53 -60 0 53 122 -60 0 53 -60 127 0 0
DNF 67 69 -138 -75 0 67 73 -138 -75 0 -138 -75 74 0 -138 -75 76 0 69 71 -138 -75 0 -67 -69 -72 138 75 0 71 73 -138 -75 0 0
DNF 67 69 -70 -76 0 67 -70 73 -76 0 -70 74 -76 0 -70 138 -76 0 -70 71 73 -76 0 69 -70 71 -76 0 -67 -69 70 -72 76 0 0
DNF 67 -71 73 141 146 149 0 67 -71 -72 141 146 149 0 -71 -72 138 141 146 149 0 -71 -72 76 141 146 149 0 -71 -72 74 141 146 149 0 -67 71 -72 -141 0 -67 71 -73 -141 0 -71 73 74 141 146 149 0 -71 73 76 141 146 149 0 -71 73 138 141 146 149 0 -67 71 -72 -146 0 -67 71 -73 -146 0 -67 71 -72 -149 0 -67 71 -73 -149 0 0
DNF 69 71 -73 143 146 149 0 69 -72 -73 143 146 149 0 -72 -73 138 143 146 149 0 -72 -73 76 143 146 149 0 -72 -73 74 143 146 149 0 -69 -71 73 -143 0 -69 -72 73 -143 0 71 -73 74 143 146 149 0 71 -73 76 143 146 149 0 71 -73 138 143 146 149 0 -69 -71 73 -146 0 -69 -72 73 -146 0 -69 -71 73 -149 0 -69 -72 73 -149 0 0
-434 432 0
-433 432 0
-68 38 0
312 307 0
-312 -307 0
15 -315 0
-15 315 0
15 -316 0
-15 316 0
188 182 0
-188 -182 0
12 -190 0
-12 190 0
12 -191 0
-12 191 0
-271 -422 0
195 -422 0
271 -423 0
-195 -423 0
347 278 0
-347 -278 0
7 -368 0
-7 368 0
7 -369 0
-7 369 0
-110 -43 0
-46 -43 0
5 -219 0
-5 219 0
5 -220 0
-5 220 0
21 -358 0
-21 358 0
21 -359 0
-21 359 0
-270 -267 0
-268 -267 0
-272 -267 0
25 -201 0
-25 201 0
25 -202 0
-25 202 0
331 268 0
324 268 0
332 268 0
402 332 0
-402 -332 0
17 -399 0
-17 399 0
17 -400 0
-17 400 0
326 324 0
-326 -324 0
35 -382 0
-35 382 0
35 -383 0
-35 383 0
30 -388 0
-30 388 0
30 -389 0
-30 389 0
334 331 0
-334 -331 0
4 -320 0
-4 320 0
10 -242 0
-10 242 0
10 -243 0
-10 243 0
289 286 0
-289 -286 0
11 -371 0
-11 371 0
11 -372 0
-11 372 0
-180 -176 0
-328 -176 0
-276 -176 0
18 -395 0
-18 395 0
18 -396 0
-18 396 0
-403 -410 0
404 -410 0
403 -411 0
-404 -411 0
22 -376 0
-22 376 0
22 -377 0
-22 377 0
-325 -416 0
323 -416 0
325 -417 0
-323 -417 0
23 -172 0
-23 172 0
-333 -428 0
84 -428 0
333 -429 0
-84 -429 0
33 -245 0
-33 245 0
33 -246 0
-33 246 0
-269 -420 0
259 -420 0
269 -421 0
-259 -421 0
29 -222 0
-29 222 0
29 -223 0
-29 223 0
-45 -430 0
80 -430 0
45 -431 0
-80 -431 0
31 -305 0
-31 305 0
31 -306 0
-31 306 0
-348 -412 0
349 -412 0
348 -413 0
-349 -413 0
20 -361 0
-20 361 0
20 -362 0
-20 362 0
-111 -424 0
112 -424 0
111 -425 0
-112 -425 0
-290 -418 0
291 -418 0
290 -419 0
-291 -419 0
2 -309 0
-2 309 0
2 -310 0
-2 310 0
-57 -54 0
-209 -57 0
-208 -57 0
226 208 0
215 208 0
126 125 0
-126 -125 0
-128 -126 0
-129 -126 0
206 205 0
207 205 0
-352 -56 0
-365 -56 0
-354 -56 0
8 -365 0
-8 365 0
8 -366 0
-8 366 0
-95 -59 0
-96 -59 0
336 96 0
346 336 0
-406 -346 0
-408 -346 0
-409 -346 0
3 -407 0
-3 407 0
3 -408 0
-3 408 0
-342 -341 0
-343 -341 0
-274 -273 0
-275 -273 0
277 274 0
-277 -274 0
379 335 0
382 335 0
381 379 0
-381 -379 0
1 -380 0
-1 380 0
1 -381 0
-1 381 0
-329 -414 0
330 -414 0
329 -415 0
-330 -415 0
-415 327 0
-414 327 0
16 -156 0
-16 156 0
16 -157 0
-16 157 0
-179 -426 0
94 -426 0
179 -427 0
-94 -427 0
-427 88 0
-426 88 0
106 95 0
-106 -95 0
-108 -106 0
-262 -108 0
-255 -108 0
257 255 0
258 255 0
264 260 0
266 260 0
249 247 0
250 247 0
-197 -107 0
-199 -107 0
-200 -107 0
36 -198 0
-36 198 0
36 -199 0
-36 199 0
-47 -49 0
48 47 0
-48 -47 0
115 48 0
-282 -115 0
-299 -115 0
-284 -115 0
24 -299 0
-24 299 0
24 -300 0
-24 300 0
-120 -114 0
-121 -114 0
116 113 0
-116 -113 0
118 116 0
119 116 0
-294 -51 0
-309 -51 0
-296 -51 0
-356 -216 0
363 356 0
-363 -356 0
-367 -363 0
-301 -297 0
254 240 0
-160 142 0
183 100 0
-183 -100 0
-192 -183 0
340 339 0
-340 -339 0
-397 -340 0
374 384 0
-374 -384 0
-432 434 433 0
-371 -313 -312 0
-316 -314 -312 0
314 313 312 0
316 313 312 0
314 371 312 0
316 371 312 0
422 271 -195 0
423 -271 195 0
43 110 46 0
410 403 -404 0
411 -403 404 0
416 325 -323 0
417 -325 323 0
428 333 -84 0
429 -333 84 0
420 269 -259 0
421 -269 259 0
430 45 -80 0
431 -45 80 0
412 348 -349 0
413 -348 349 0
424 111 -112 0
425 -111 112 0
418 290 -291 0
419 -290 291 0
-56 -55 -54 0
57 55 54 0
57 56 54 0
-125 -205 -57 0
-208 -226 -215 0
126 128 129 0
-205 -206 -207 0
124 123 55 0
-124 -123 55 0
-124 123 -55 0
124 -123 -55 0
-336 -327 -96 0
-336 -338 -96 0
-336 -335 -96 0
341 273 336 0
-346 -273 -336 0
-346 -341 -336 0
341 342 343 0
273 274 275 0
-335 -379 -382 0
414 329 -330 0
415 -329 330 0
-327 415 414 0
426 179 -94 0
427 -179 94 0
-88 427 426 0
-107 -103 -106 0
108 103 106 0
108 107 106 0
-260 -247 -108 0
-255 -257 -258 0
-260 -264 -266 0
-247 -249 -250 0
105 187 103 0
-105 -187 103 0
-105 187 -103 0
105 -187 -103 0
-51 -50 -49 0
47 50 49 0
47 51 49 0
114 113 48 0
-115 -113 -48 0
-115 -114 -48 0
114 120 121 0
-116 -118 -119 0
93 64 50 0
-93 -64 50 0
-93 64 -50 0
93 -64 -50 0
-359 -357 -216 0
-362 -360 -216 0
-366 -364 -363 0
367 364 363 0
367 366 363 0
-300 -298 -297 0
301 298 297 0
301 300 297 0
-368 -303 -302 0
-306 -304 -302 0
304 303 302 0
306 303 302 0
304 368 302 0
306 368 302 0
256 252 240 0
-254 -252 -240 0
-254 -256 -240 0
-142 141 143 0
-142 -141 -143 0
-198 -186 -183 0
192 186 183 0
192 198 183 0
-220 -218 -217 0
-223 -221 -217 0
221 218 217 0
223 218 217 0
221 220 217 0
223 220 217 0
-407 -393 -340 0
397 393 340 0
397 407 340 0
-375 -380 -374 0
-378 -377 -374 0
377 380 374 0
378 380 374 0
377 375 374 0
378 375 374 0
267 270 268 272 0
-268 -331 -324 -332 0
176 180 328 276 0
208 209 205 57 0
208 209 125 57 0
56 352 365 354 0
335 338 327 96 0
346 406 408 409 0
255 262 247 108 0
255 262 260 108 0
107 197 199 200 0
115 282 299 284 0
51 294 309 296 0
356 360 357 216 0
356 362 357 216 0
356 360 359 216 0
356 362 359 216 0
